10J3M/DAT/10J3MULR-8.dat
10 3
12.9699 40.8841
47.9923 29.6587
46.9946 20.2347
30.0206 14.1707
27.6523 23.849
39.5198 47.9319
27.849 48.2828
25.3765 27.3918
7.122 43.9201
49.1765 17.5777
104.6338