10J3M/SOL/10J3MULR-8.sol
solution status: optimal solution found
objective value:                     73.2137666666667
x#1#3                                               1 	(obj:0)
x#2#1                                0.23998424316278 	(obj:0)
x#2#2                               0.207082153110706 	(obj:0)
x#2#3                               0.552933603726514 	(obj:0)
x#3#2                                               1 	(obj:0)
x#4#2                                               1 	(obj:0)
x#5#1                               0.621707730896742 	(obj:0)
x#5#3                               0.378292269103258 	(obj:0)
x#6#3                                               1 	(obj:0)
x#7#1                                               1 	(obj:0)
x#8#2                                               1 	(obj:0)
x#9#1                                               1 	(obj:0)
x#10#2                              0.606580263557495 	(obj:0)
x#10#3                              0.393419736442505 	(obj:0)
z                                    73.2137666666667 	(obj:1)
